[ma. 03. april 18:06:21 +0200 2023]  ./input/alternate_g_np/50-4-3.gcc
Set parameter Username
Academic license - for non-commercial use only - expires 2024-03-28
Set parameter TimeLimit to value 1800
Set parameter PreCrush to value 1
Set parameter LazyConstraints to value 1
Gurobi Optimizer version 10.0.1 build v10.0.1rc0 (linux64)

CPU model: AMD Ryzen 9 5950X 16-Core Processor, instruction set [SSE2|AVX|AVX2]
Thread count: 16 physical cores, 32 logical processors, using up to 32 threads

Optimize a model with 54 rows, 250 columns and 650 nonzeros
Model fingerprint: 0x97990e96
Variable types: 0 continuous, 250 integer (250 binary)
Coefficient statistics:
  Matrix range     [1e+00, 1e+00]
  Objective range  [2e+00, 1e+02]
  Bounds range     [1e+00, 1e+00]
  RHS range        [1e+00, 1e+00]
Presolve time: 0.00s
Presolved: 54 rows, 250 columns, 650 nonzeros
Variable types: 0 continuous, 250 integer (250 binary)

Root relaxation: objective 2.336000e+03, 4 iterations, 0.00 seconds (0.00 work units)

    Nodes    |    Current Node    |     Objective Bounds      |     Work
 Expl Unexpl |  Obj  Depth IntInf | Incumbent    BestBd   Gap | It/Node Time

     0     0 2336.00000    0    4          - 2336.00000      -     -    0s
     0     0 2336.00000    0    6          - 2336.00000      -     -    0s
     0     0 2336.00000    0    -          - 2336.00000      -     -    0s
     0     0 2336.00000    0   12          - 2336.00000      -     -    0s
     0     0 2336.00000    0    -          - 2336.00000      -     -    0s
     0     0 2336.00000    0    8          - 2336.00000      -     -    0s
     0     0 2336.00000    0    -          - 2336.00000      -     -    0s
     0     0 2336.00000    0    8          - 2336.00000      -     -    0s
     0     2 2336.00000    0    6          - 2336.00000      -     -    0s
*11929  6518              29    1945.0000000 2336.00000  20.1%  28.9    2s
H12731  6916                    1999.0000000 2336.00000  16.9%  30.5    2s
H12856  7027                    2032.0000000 2336.00000  15.0%  30.7    2s
*17059  9390              44    2052.0000000 2336.00000  13.8%  35.0    4s
 18513 10396 2179.00000   26   42 2052.00000 2335.00000  13.8%  36.6    5s
*19981 10286              35    2089.0000000 2335.00000  11.8%  37.5    5s
*23986  9784              33    2140.0000000 2334.00000  9.07%  41.2    6s
*26931  7962              29    2173.0000000 2331.42857  7.29%  45.6    7s
*28528  6640              27    2185.0000000 2325.00000  6.41%  47.6    7s
*28533  6310              27    2197.0000000 2325.00000  5.83%  47.6    7s
*35197  2976              32    2220.0000000 2284.00000  2.88%  51.7    9s
 38891  3070 2240.00000   44   69 2220.00000 2263.00000  1.94%  52.8   10s

Cutting planes:
  User: 69
  Lazy constraints: 2433

Explored 52769 nodes (2758417 simplex iterations) in 12.87 seconds (10.46 work units)
Thread count was 32 (of 32 available processors)

Solution count 10: 2220 2197 2185 ... 1945

Optimal solution found (tolerance 1.00e-04)
Best objective 2.220000000000e+03, best bound 2.220000000000e+03, gap 0.0000%

User-callback calls 107708, time in user-callback 3.92 sec
Minimal separator inequalities added: 138772
Indegree inequalities added: 0
Passed solution check
[ma. 03. april 18:06:34 +0200 2023]  done

